
Gurobi 6.5.2 (linux64) logging started Tue Mar 14 21:17:39 2017


Gurobi 6.5.2 (linux64) logging started Tue Mar 14 21:17:39 2017

Optimize a model with 41 rows, 77 columns and 155 nonzeros
Coefficient statistics:
  Matrix range    [1e+00, 2e+00]
  Objective range [3e+00, 1e+02]
  Bounds range    [1e+00, 1e+00]
  RHS range       [1e+00, 1e+00]
Presolve removed 21 rows and 20 columns
Presolve time: 0.00s
Presolved: 20 rows, 57 columns, 114 nonzeros
Variable types: 0 continuous, 57 integer (57 binary)
Found heuristic solution: objective 845.0000000

Root relaxation: objective 6.740000e+02, 25 iterations, 0.00 seconds

    Nodes    |    Current Node    |     Objective Bounds      |     Work
 Expl Unexpl |  Obj  Depth IntInf | Incumbent    BestBd   Gap | It/Node Time

*    0     0               0     674.0000000  674.00000  0.00%     -    0s

Cutting planes:
  Lazy constraints: 1

Explored 0 nodes (25 simplex iterations) in 0.00 seconds
Thread count was 8 (of 8 available processors)

Optimal solution found (tolerance 1.00e-04)
Best objective 6.740000000000e+02, best bound 6.740000000000e+02, gap 0.0%
